RAW/XH/fspd/X-n167-k10.vrp_seed-1.out
14018	12.022	32.932
