RAW/XH/fspd/X-n167-k10.vrp_seed-1.sol
Route #1: 99 63 87 18 101 27 108 102 100 50 19 142 82 120 39 11 141 70 133 24 31 40 135 150 98 45 81 164 34 65 110 36 105 80 144 124
Route #2: 67 52 14 85 156 125 66 43 117 20 147 107 64 104 12 57 77 13 1 122 111 88 136 37 84 146 51 10 72 75 4 131 55 92 30 44
Route #3: 5 86 46 15 159 17 96 38 151 115 97 148 116 153 8 114 163 145 129 49 91 161 90 94 166 106 33 74 41 138 128 119 140 134
Route #4: 121 79 3 130 143 71 113 21 149 160 109 16 2 29 28 32 53 112 59 95 158 60 132 154 139 23 76 54 42 152 103
Route #5: 89 6 7 157 9 48 68 162 62 123 35 26 165 78 126 127 61 58 56 155 47 118 93 25 73 22 69 83 137
Cost 14018.000000